<number of tasks>
30

<cycle time>
30

<task times>
1 8
2 7
3 19
4 10
5 2
6 6
7 14
8 10
9 1
10 4
11 14
12 15
13 5
14 12
15 9
16 10
17 2
18 10
19 18
20 16
21 21
22 14
23 16
24 7
25 17
26 9
27 25
28 7
29 14
30 2

<precedence relations>
1,4
1,5
2,11
2,12
3,16
3,17
4,7
5,6
6,7
7,8
8,9
9,26
10,24
12,13
13,14
14,15
14,20
15,22
16,20
17,18
18,19
20,21
20,24
21,22
22,23
23,27
24,25
25,26
26,27
27,28
27,29
29,30

<setup times forward>
1,2:2
1,3:2
1,4:2
1,10:2
1,11:2
1,14:2
1,15:3
1,16:1
1,17:2
1,18:1
1,19:4
1,20:1
1,21:3
1,22:3
1,24:2
1,25:2
2,1:2
2,5:2
2,7:1
2,8:1
2,9:2
2,12:2
2,16:1
2,18:1
2,19:2
3,1:2
3,5:2
3,7:1
3,8:1
3,9:2
3,12:2
3,13:2
3,15:1
3,16:1
4,5:2
4,7:1
4,12:2
4,13:2
4,15:1
4,16:1
4,18:1
4,19:2
4,20:1
4,21:1
4,22:1
4,23:2
5,2:2
5,3:2
5,4:2
5,6:2
5,10:2
5,11:2
5,14:2
5,15:3
5,16:1
5,17:2
5,18:1
5,19:4
5,20:1
5,21:3
5,22:3
5,24:2
5,25:2
6,7:1
6,12:2
6,13:2
6,15:1
6,16:1
6,18:1
6,19:2
6,20:1
6,21:1
6,22:1
6,23:2
7,2:1
7,3:1
7,8:2
7,10:1
7,11:1
7,12:1
7,13:1
7,14:1
7,15:2
7,17:1
7,19:3
7,21:2
7,22:2
7,23:1
7,24:1
7,25:1
8,2:1
8,3:1
8,9:3
8,10:1
8,11:1
8,12:3
8,13:3
8,14:1
8,16:2
8,17:1
8,18:2
8,19:1
8,20:2
8,23:3
8,24:1
8,25:1
9,2:2
9,3:2
9,10:2
9,11:2
9,14:2
9,15:3
9,16:1
9,17:2
9,18:1
9,19:4
9,20:1
9,21:3
9,22:3
9,24:2
9,25:2
10,1:2
10,5:2
10,7:1
10,8:1
10,9:2
10,12:2
10,13:2
10,15:1
10,16:1
10,18:1
10,19:2
10,20:1
10,21:1
10,22:1
10,23:2
11,1:2
11,5:2
11,7:1
11,8:1
11,9:2
11,12:2
11,13:2
11,15:1
11,16:1
11,18:1
11,19:2
11,20:1
11,21:1
11,22:1
11,23:2
11,26:2
11,28:2
12,3:2
12,4:2
12,6:2
12,7:1
12,8:3
12,10:2
12,11:2
12,16:1
12,17:2
12,18:1
12,19:4
13,3:2
13,4:2
13,6:2
13,7:1
13,8:3
13,10:2
13,11:2
13,14:2
13,16:1
13,17:2
13,18:1
13,19:4
14,1:2
14,5:2
14,7:1
14,8:1
14,9:2
14,15:1
14,16:1
14,18:1
14,19:2
14,20:1
15,1:3
15,3:1
15,4:1
15,5:3
15,6:1
15,7:2
15,9:3
15,10:1
15,11:1
15,16:2
15,17:1
15,18:2
15,19:1
15,20:2
15,24:1
15,25:1
15,26:3
16,1:1
16,2:1
16,4:1
16,5:1
16,6:1
16,8:2
16,9:1
16,10:1
16,11:1
16,12:1
16,13:1
16,14:1
16,15:2
16,17:1
16,19:3
17,1:2
17,5:2
17,7:1
17,8:1
17,9:2
17,12:2
17,13:2
17,15:1
17,16:1
17,18:1
17,20:1
17,21:1
17,22:1
17,23:2
17,26:2
17,28:2
18,1:1
18,2:1
18,4:1
18,5:1
18,6:1
18,8:2
18,9:1
18,10:1
18,11:1
18,12:1
18,13:1
18,14:1
18,15:2
18,19:3
18,21:2
18,22:2
18,23:1
18,24:1
18,25:1
18,26:1
18,27:1
18,28:3
18,29:1
18,30:1
19,1:4
19,2:2
19,4:2
19,5:4
19,6:2
19,7:3
19,8:1
19,9:4
19,10:2
19,11:2
19,12:4
19,13:4
19,14:2
19,15:1
19,16:3
19,20:3
19,21:1
19,22:1
19,23:4
19,24:2
19,25:2
19,26:4
19,27:2
19,29:2
19,30:2
20,1:1
20,4:1
20,5:1
20,6:1
20,8:2
20,9:1
20,10:1
20,11:1
20,15:2
20,17:1
20,19:3
20,21:2
20,24:1
21,1:3
21,4:1
21,5:3
21,6:1
21,7:2
21,9:3
21,10:1
21,11:1
21,17:1
21,18:2
21,19:1
21,24:1
21,25:1
21,26:3
22,1:3
22,4:1
22,5:3
22,6:1
22,7:2
22,9:3
22,10:1
22,11:1
22,17:1
22,18:2
22,19:1
22,23:3
22,24:1
22,25:1
22,26:3
23,4:2
23,6:2
23,7:1
23,8:3
23,10:2
23,11:2
23,17:2
23,18:1
23,19:4
23,24:2
23,25:2
23,27:2
24,1:2
24,5:2
24,7:1
24,8:1
24,9:2
24,15:1
24,18:1
24,19:2
24,21:1
24,22:1
24,23:2
25,1:2
25,5:2
25,7:1
25,8:1
25,9:2
25,15:1
25,18:1
25,19:2
25,21:1
25,22:1
25,23:2
25,26:2
26,11:2
26,15:3
26,17:2
26,18:1
26,19:4
26,21:3
26,22:3
26,27:2
27,18:1
27,19:2
27,28:2
28,11:2
28,17:2
28,18:3
28,29:2
28,30:2
29,18:1
29,19:2
29,28:2
30,18:1
30,19:2
30,28:2

<setup times backward>
1,2:2
1,3:2
1,10:2
1,11:2
1,14:2
1,15:3
1,16:1
1,17:2
1,18:1
1,19:4
1,20:1
1,21:3
1,22:3
1,24:2
1,25:2
2,8:1
2,19:2
3,8:1
3,15:1
4,15:1
4,19:2
4,21:1
4,22:1
5,2:2
5,3:2
5,4:2
5,10:2
5,11:2
5,14:2
5,15:3
5,16:1
5,17:2
5,18:1
5,19:4
5,20:1
5,21:3
5,22:3
5,24:2
5,25:2
6,15:1
6,19:2
6,21:1
6,22:1
7,2:1
7,3:1
7,4:1
7,6:1
7,10:1
7,11:1
7,14:1
7,15:2
7,17:1
7,19:3
7,21:2
7,22:2
7,24:1
7,25:1
8,19:1
9,2:2
9,3:2
9,4:2
9,6:2
9,7:1
9,8:3
9,10:2
9,11:2
9,14:2
9,15:3
9,16:1
9,17:2
9,18:1
9,19:4
9,20:1
9,21:3
9,22:3
9,24:2
9,25:2
10,8:1
10,15:1
10,19:2
10,21:1
10,22:1
11,8:1
11,15:1
11,19:2
11,21:1
11,22:1
11,28:2
12,2:2
12,3:2
12,4:2
12,6:2
12,7:1
12,8:3
12,10:2
12,11:2
12,16:1
12,17:2
12,18:1
12,19:4
13,2:2
13,3:2
13,4:2
13,6:2
13,7:1
13,8:3
13,10:2
13,11:2
13,16:1
13,17:2
13,18:1
13,19:4
14,8:1
14,19:2
15,19:1
16,2:1
16,3:1
16,4:1
16,6:1
16,8:2
16,10:1
16,11:1
16,14:1
16,15:2
16,17:1
16,19:3
17,8:1
17,15:1
17,21:1
17,22:1
17,28:2
18,2:1
18,3:1
18,4:1
18,6:1
18,8:2
18,10:1
18,11:1
18,14:1
18,15:2
18,17:1
18,21:2
18,22:2
18,24:1
18,25:1
18,27:1
18,28:3
18,29:1
18,30:1
20,2:1
20,3:1
20,4:1
20,6:1
20,8:2
20,10:1
20,11:1
20,14:1
20,15:2
20,17:1
20,19:3
21,19:1
22,19:1
23,2:2
23,3:2
23,4:2
23,6:2
23,7:1
23,8:3
23,10:2
23,11:2
23,14:2
23,15:3
23,16:1
23,17:2
23,18:1
23,19:4
23,20:1
23,21:3
23,22:3
23,24:2
23,25:2
24,8:1
24,15:1
24,19:2
24,21:1
24,22:1
25,8:1
25,15:1
25,19:2
25,21:1
25,22:1
26,2:2
26,3:2
26,4:2
26,6:2
26,7:1
26,8:3
26,10:2
26,11:2
26,14:2
26,15:3
26,16:1
26,17:2
26,18:1
26,19:4
26,20:1
26,21:3
26,22:3
26,24:2
26,25:2
27,8:1
27,15:1
27,19:2
27,21:1
27,22:1
29,8:1
29,15:1
29,19:2
29,21:1
29,22:1
29,28:2
30,8:1
30,15:1
30,19:2
30,21:1
30,22:1
30,28:2

<end>

<optimal SALBP-1 value>
12


<rand seed>
467321153

<Lower Bounds>
Lm1=11
Lms1=11
Lm2=8
Lm3=9
Lm4=11
Best=11

<Optimal Stations (Iterations: 10)>
14
